100
500
395
383
381
381
379
374
372
370
369
367
365
357
355
354
347
341
339
338
330
330
329
327
326
326
324
324
309
308
307
300
290
290
288
287
287
285
280
276
274
273
269
266
260
259
255
252
250
250
243
241
240
240
237
234
234
232
229
222
215
212
210
207
207
203
202
199
196
191
184
179
162
162
160
160
157
155
155
153
153
152
149
142
142
140
139
134
133
128
123
119
118
117
117
116
116
107
107
106
103
103
